data_CoMe2bdp

_chemical_name_common            Co(Me2-bdp)
_chemical_name_systematic        ?
_chemical_formula_moiety         'C14 H12 Co1 N4'
_chemical_formula_sum            'C14 H12 Co1 N4'
_chemical_melting_point          ?
_chemical_formula_weight         295.206


loop_
_atom_type_symbol
_atom_type_description
_atom_type_scat_source
C C 'International Tables Vol C Tables 4.2.6.8 and 6.1.1.4'
H H 'International Tables Vol C Tables 4.2.6.8 and 6.1.1.4'
Co Co 'International Tables Vol C Tables 4.2.6.8 and 6.1.1.4'
N N 'International Tables Vol C Tables 4.2.6.8 and 6.1.1.4'

#==============================================================================

# 1. POWDER SPECIMEN AND CRYSTAL DATA

_exptl_crystal_colour            purple
_diffrn_ambient_temperature      298
_diffrn_ambient_pressure         ?
_symmetry_cell_setting           monoclinic
_symmetry_space_group_name_h-m   'C 2/c'
_symmetry_int_tables_number      15
_chemical_absolute_configuration ?
_diffrn_radiation_probe          x-ray
_diffrn_radiation_type           synchrotron
_diffrn_radiation_wavelength     0.727680
_diffrn_source_type              ?
_cell_measurement_temperature    298
_cell_length_a  		24.6401(30)
_cell_length_b  		8.69621(90)
_cell_length_c  		7.12945(63)
_cell_angle_alpha 		90
_cell_angle_beta  		90.081(13)
_cell_angle_gamma 		90
_cell_volume 			1527.67(28)
_cell_formula_units_Z            4


loop_
_symmetry_equiv_pos_site_id
_symmetry_equiv_pos_as_xyz
1 -x,-y,-z
2 -x,y,1/2-z
3 x,-y,1/2+z
4 x,y,z
5 1/2-x,1/2-y,-z
6 1/2-x,1/2+y,1/2-z
7 1/2+x,1/2-y,1/2+z
8 1/2+x,1/2+y,z

# The next three fields give the specimen dimensions in mm.  The equatorial 
# plane contains the incident and diffracted beam.

_pd_spec_size_axial              10 # perpendicular to 
# equatorial plane

_pd_spec_size_equat              0.5 # parallel to 
# scattering vector 
# in transmission

_pd_spec_size_thick              ? # parallel to 
# scattering vector 
# in reflection

# The next five fields are character fields that describe the specimen.

_pd_spec_mounting                
;
packed powder in quartz glass capillary
;
_pd_spec_mount_mode              transmission # options are 'reflection' 
# or 'transmission'

_pd_spec_shape                   cylinder # options are 'cylinder',
# 'flat_sheet' or 'irregular'

_pd_char_particle_morphology     ?
_pd_char_colour                  purple # use ICDD colour descriptions


# The next four fields are normally only needed for transmission experiments.
_exptl_absorpt_coefficient_mu    ?
_exptl_absorpt_correction_type   ?
_exptl_absorpt_correction_T_min  ?
_exptl_absorpt_correction_T_max  ?

#==============================================================================

# 2. EXPERIMENTAL DATA

_exptl_special_details           
; ?
;

# This following item is used to identify the equipment used to record the
# powder pattern when the diffractogram was measured at a laboratory
# other than the authors' home institution, e.g. when neutron or synchrotron
# radiation is used.



_pd_instr_location               
; Advanced Photon Source, Argonne National Laboratory
;

_diffrn_source_target            ?
_diffrn_measurement_device_type  custom
_diffrn_detector_type            'Perkin Elmer a-Si Flat Panel'
_pd_meas_scan_method             '?'
# options are 'step', 'cont',
# 'tof', 'fixed' or
# 'disp' (= dispersive)
_pd_meas_special_details         
;  ?
;

# The following six items are used for angular dispersive measurements only.

_diffrn_radiation_monochromator  'DCM Si(111)'

# The following four items give details of the measured (not processed)
# powder pattern.  Angles are in degrees.

_pd_meas_number_of_points        1999
_pd_meas_2theta_range_min        1.800
_pd_meas_2theta_range_max        25.788
_pd_meas_2theta_range_inc        0.012


# The following three items are used for time-of-flight measurements only.

_pd_instr_dist_src/spec          ? 
_pd_instr_dist_spec/detc         ?
_pd_meas_2theta_fixed            ?

# The following fields are used to identify the programs used.

_computing_data_collection       ?
_computing_cell_refinement       'TOPAS, Bruker AXS 2005, Karlsruhe, Germany'
_computing_data_reduction        ?
_computing_structure_solution    'TOPAS, Bruker AXS 2005, Karlsruhe, Germany'
_computing_structure_refinement  'TOPAS, Bruker AXS 2005, Karlsruhe, Germany'
_computing_molecular_graphics    ?
_computing_publication_material  'TOPAS, Bruker AXS 2005, Karlsruhe, Germany'

#==============================================================================

# 3. REFINEMENT DATA

# Use the next field to give any special details about the fitting of the
# powder pattern.

_pd_proc_ls_special_details      
; The use of a rigid body description for the ligand does not allow 
  the derivation of statistically  meaningful s.u.'s for their atoms.
  S.u.'s are available only for the position of the center of mass (X, Y, Z)
  and for the rotational angles (RX, RY, RZ) of the rigid body.
  
    
rigid body description:
  
prm xx -9291183486751622.00000`_112298.59671


rigid 

z_matrix N1
z_matrix N2 N1    1.36000
z_matrix C1 N1    1.36000 N2 108
z_matrix C2 N2    1.36000 N1 108 C1 0
z_matrix C3 C2    1.36000 N2 108 N1 0
z_matrix C4 C3    1.50000 C2 -126 N1 0
z_matrix C5 C4    1.40000 C3 120 N1 =xx;
z_matrix C6 C5    1.50000 C4 240 N1 =xx;
z_matrix C7 C5    1.4 C4 120 N1 =xx;

Rotate_about_points(@  38.05254`_0.89400,C3,C4,"C5 C6 C7")

Rotate_about_axies(@  201.77398`_0.81544, @  185.17364`_0.29328,  
	@ -194.62019`_0.32803)
Translate(@ -297.54747`_0.00036, @ -1634.85108`_0.00132, 
	@ -1547.53598`_0.00251)
        
;

# The next three items are given as text
_pd_proc_ls_profile_function     'fundamental parameters approach'
_pd_proc_ls_background_function  'Chebychev polynomial'
_pd_proc_ls_pref_orient_corr     none
_pd_proc_ls_prof_R_factor        0.082
_pd_proc_ls_prof_wR_factor       0.108
_pd_proc_ls_prof_wR_expected     0.015
_refine_ls_R_I_factor		 0.042


_refine_special_details          
; ?
;

_refine_ls_structure_factor_coef Inet
_refine_ls_matrix_type           fullcycle
_refine_ls_weighting_scheme      sigma
_refine_ls_hydrogen_treatment    constr
_refine_ls_extinction_method     none
_refine_ls_extinction_coef       ?
_refine_ls_number_parameters     33
_refine_ls_number_restraints     0
_refine_ls_number_constraints    ?
# The following item is 'CHI squared'
_refine_ls_goodness_of_fit_all   7.003

_refine_ls_restrained_S_all      ?
_refine_ls_restrained_S_obs      ?
_refine_ls_shift/su_max          .01
_refine_ls_shift/su_mean         ?


# The following four items apply to angular dispersive measurements.
# 2theta minimum, maximum and increment (in degrees) are for the 
# intensities used in the refinement.
_pd_proc_2theta_range_min        1.800
_pd_proc_2theta_range_max        25.788
_pd_proc_2theta_range_inc        0.012

loop_
_pd_proc_wavelength
0.727680

_pd_block_diffractogram_id       ? # The id used for the block
# containing the powder 
# pattern profile (section 11).

# Give appropriate details in the next two text fields.
_pd_proc_info_excluded_regions   ?
_pd_proc_info_data_reduction     ?

#==============================================================================

# 4. ATOMIC COORDINATES AND DISPLACEMENT PARAMETERS

loop_
_atom_site_label
_atom_site_type_symbol
_atom_site_symmetry_multiplicity
_atom_site_fract_x
_atom_site_fract_y
_atom_site_fract_z
_atom_site_occupancy
_atom_site_B_iso_or_equiv

Co1 Co 4 0.5 	0.03517(71) 	0.25 		1 0.0156(4)
C1 C   8 0.4050(4) 0.203(1) 	0.393(3) 	1 0.0156(6)
C2 C   8 0.3892(4) 0.117(1) 	0.678(3) 	1 0.0156(6)
C3 C   8 0.3658(4) 0.183(1) 	0.525(3)  	1 0.0156(6)
C4 C   8 0.3072(4) 0.226(1) 	0.505(3)  	1 0.0156(6)
C5 C   8 0.2807(4) 0.303(1) 	0.652(3)  	1 0.0156(6)
C6 C   8 0.3127(4) 0.363(1) 	0.815(3)  	1 0.0156(6)
C7 C   8 0.2245(4) 0.325(1) 	0.645(3)  	1 0.0156(6)
N1 N   8 0.4525(4) 0.149(1) 	0.464(3)  	1 0.0156(6)
N2 N   8 0.4428(4) 0.096(1)	0.640(3) 	1 0.0156(6)
H1 H   8 0.399288  0.253488 	0.254591 	1 0.0156(6)
H2 H   8 0.368676  0.0863792 	0.807919 	1 0.0156(6)
H3 H   8 0.34253   0.445895 	0.765351 	1 0.0156(6)
H4 H   8 0.285428  0.418747 	0.913983 	1 0.0156(6)
H5 H   8 0.333416  0.267998 	0.884219 	1 0.0156(6)
H6 H   8 0.204737  0.384138 	0.760934 	1 0.0156(6)

#==============================================================================

#5. MOLECULAR GEOMETRY

loop_
  _geom_bond_atom_site_label_1
  _geom_bond_atom_site_label_2
  _geom_bond_distance
  _geom_bond_site_symmetry_2
  _geom_bond_publ_flag

C1	C3	1.36(2)		1.555	N
C1	N1	1.358(17)	1.555	N
C2	C3	1.36(3)		1.555	N
C2	N2	1.361(15)	1.555	N
C3	C4	1.498(14)	1.555	N
C4	C5	1.41(2)		1.555	N
C5	C6	1.50(2)		1.555	N
C5	C7	1.399(14)	1.555	N
N1	N2	1.36(3)		1.555	N
N1	Co1	2.164(17)	1.555	N

loop_
  _geom_angle_atom_site_label_1
  _geom_angle_atom_site_label_2
  _geom_angle_atom_site_label_3
  _geom_angle
  _geom_angle_publ_flag

Co1	N1	C1	111.2(15)	N
Co1	N1	N2	126.3(7)	N
N1	C1	H1	125.96		N
N1	C1	C3	108.1(17)	N
N1	N2	C2	108.1(14)	N
C1	C3	C2	107.9(11)	N
C1	C3	C4	126.0(17)	N
H1	C1	C3	125.96		N
C3	C2	N2	107.9(16)	N
C3	C2	H2	126.05		N
C3	C4	C5	119.8(16)	N
C2	C3	C4	126.1(16)	N
H2	C2	N2	126.05		N
C4	C5	C7	120.0(16)	N
C4	C5	C6	120.0(10)	N
C5	C6	H3	109.47		N
C5	C7	H6	118.77		N
C6	C5	C7	120.0(15)	N


#END


